sat
(
(define-fun J () String "")
(define-fun I () String "")
(define-fun H () String "aaaaaaba")
(define-fun F () String "")
(define-fun L () String "")
(define-fun O () String "baa")
(define-fun M () String "")
(define-fun P () String "")
)
